Normalized Data/p04_16_normalized_split0.vrp
NAME:p04_16_NORMALIZED_split
BEST_KNOWN: 0
COMMENT: 0
DIMENSION: 610
CAPACITY: 100
EDGE_WEIGHT_FORMAT: FUNCTION
EDGE_WEIGHT_TYPE: EXACT_2D
NODE_COORD_SECTION
1 0.00000 0.00000
2 -7 9
3 -7 9
4 -7 9
5 32 -26
6 32 -26
7 14 -23
8 14 -23
9 14 -23
10 14 -23
11 14 -23
12 14 -23
13 5 -28
14 5 -28
15 5 -28
16 8 -6
17 8 -6
18 8 -6
19 8 -6
20 29 -23
21 29 -23
22 29 -23
23 -30 -14
24 -30 -14
25 -30 -14
26 -30 -14
27 -30 -14
28 -30 -14
29 -18 -15
30 -18 -15
31 -18 -15
32 -18 -15
33 -7 7
34 -7 7
35 -7 7
36 -7 7
37 5 -43
38 5 -43
39 -9 -14
40 -9 -14
41 -9 -14
42 -9 -14
43 -9 -14
44 -9 -14
45 46 24
46 46 24
47 46 24
48 46 24
49 -17 -15
50 -17 -15
51 -17 -15
52 -17 -15
53 -17 -15
54 -17 -15
55 -17 -15
56 -24 41
57 -24 41
58 -24 41
59 -24 41
60 -24 41
61 -14 -32
62 -14 -32
63 -14 -32
64 38 -24
65 38 -24
66 38 -24
67 38 -24
68 38 -24
69 38 -24
70 38 -24
71 22 6
72 22 6
73 22 6
74 22 6
75 22 6
76 -39 -1
77 -39 -1
78 -39 -1
79 17 5
80 17 5
81 17 5
82 31 -1
83 31 -1
84 31 -1
85 31 -1
86 31 -1
87 -6 18
88 -6 18
89 -6 18
90 -6 18
91 -6 18
92 11 -16
93 11 -16
94 11 -16
95 11 -16
96 -1 47
97 -1 47
98 -1 47
99 -1 47
100 -1 47
101 -1 47
102 -1 47
103 -17 -15
104 -17 -15
105 7 37
106 7 37
107 7 37
108 7 37
109 19 -11
110 19 -11
111 19 -11
112 29 27
113 29 27
114 29 27
115 29 27
116 27 -13
117 27 -13
118 27 -13
119 27 -13
120 -38 -39
121 -38 -39
122 44 -22
123 44 -22
124 44 -22
125 44 -22
126 44 -22
127 -12 -40
128 -12 -40
129 -12 -40
130 10 26
131 10 26
132 10 26
133 10 26
134 10 26
135 10 26
136 -45 -14
137 -45 -14
138 -45 -14
139 -17 20
140 -17 20
141 -17 20
142 -17 20
143 -17 20
144 8 -37
145 8 -37
146 -20 -26
147 -20 -26
148 -20 -26
149 -20 -26
150 19 -20
151 19 -20
152 19 -20
153 19 -20
154 19 -20
155 19 -20
156 47 29
157 47 29
158 47 29
159 47 29
160 47 29
161 47 29
162 1 -49
163 1 -49
164 1 -49
165 1 -49
166 1 -49
167 17 49
168 17 49
169 17 49
170 17 49
171 -30 38
172 -30 38
173 -30 38
174 -30 38
175 -30 38
176 28 -48
177 28 -48
178 -29 -33
179 -29 -33
180 -29 -33
181 -29 -33
182 -29 -33
183 -29 -33
184 -32 3
185 -32 3
186 -32 3
187 42 -37
188 42 -37
189 42 -37
190 42 -37
191 23 -11
192 23 -11
193 23 -11
194 23 -11
195 23 -11
196 23 -11
197 23 -32
198 23 -32
199 23 -32
200 29 -16
201 29 -16
202 29 -16
203 29 -16
204 29 -16
205 -32 24
206 -32 24
207 -32 24
208 36 -17
209 36 -17
210 36 -17
211 36 -17
212 36 -17
213 49 -28
214 49 -28
215 49 -28
216 49 -28
217 49 -28
218 49 -28
219 -46 10
220 -46 10
221 -46 10
222 -46 10
223 -46 10
224 -49 -20
225 -49 -20
226 -49 -20
227 -46 -13
228 -46 -13
229 -46 -13
230 23 -20
231 23 -20
232 36 -10
233 36 -10
234 -49 -39
235 -49 -39
236 45 3
237 45 3
238 45 3
239 45 3
240 -42 2
241 -42 2
242 -42 2
243 -42 2
244 -42 2
245 47 -22
246 47 -22
247 24 27
248 24 27
249 -12 -4
250 -12 -4
251 -12 -4
252 -12 -4
253 -12 -4
254 41 -4
255 41 -4
256 41 -4
257 41 -4
258 49 9
259 49 9
260 49 9
261 -25 7
262 -25 7
263 -25 7
264 -27 -31
265 -27 -31
266 -27 -31
267 20 -34
268 20 -34
269 20 -34
270 20 -34
271 9 21
272 9 21
273 9 21
274 9 21
275 27 -17
276 27 -17
277 27 -17
278 27 -17
279 27 -17
280 27 -17
281 -2 25
282 -2 25
283 -2 25
284 -20 1
285 -20 1
286 -20 1
287 5 -11
288 5 -11
289 5 -11
290 5 -11
291 5 -11
292 -41 18
293 -41 18
294 -41 18
295 -41 18
296 -41 18
297 -33 17
298 41 -48
299 41 -48
300 41 -48
301 41 -48
302 -9 -40
303 -9 -40
304 -43 32
305 -43 32
306 21 1
307 21 1
308 21 1
309 21 1
310 21 1
311 21 1
312 21 1
313 42 -31
314 42 -31
315 42 -31
316 42 -31
317 42 -31
318 42 -31
319 47 25
320 47 25
321 47 25
322 47 25
323 47 25
324 47 25
325 40 32
326 40 32
327 40 32
328 40 32
329 40 32
330 -15 -49
331 -15 -49
332 -15 -49
333 -15 -49
334 -15 -49
335 -15 -49
336 26 8
337 26 8
338 26 8
339 26 8
340 26 8
341 26 8
342 -41 -27
343 -41 -27
344 -41 -27
345 -41 -27
346 -41 -27
347 -19 -8
348 -19 -8
349 -19 -8
350 34 49
351 34 49
352 34 49
353 34 49
354 34 49
355 34 49
356 -46 -46
357 -46 -46
358 -46 -46
359 -46 -46
360 -46 -46
361 -5 30
362 -5 30
363 -5 30
364 -5 30
365 29 7
366 29 7
367 27 -6
368 27 -6
369 27 -6
370 27 -6
371 27 -6
372 27 -6
373 35 36
374 35 36
375 35 36
376 21 -39
377 21 -39
378 21 -39
379 21 -39
380 21 -39
381 -13 -18
382 -13 -18
383 -13 -18
384 -13 -18
385 -13 -18
386 -48 29
387 -48 29
388 -48 29
389 -48 29
390 -48 29
391 38 31
392 38 31
393 34 30
394 34 30
395 34 30
396 34 30
397 34 30
398 -19 18
399 -19 18
400 -19 18
401 12 29
402 12 29
403 12 29
404 -45 2
405 -45 2
406 -46 -2
407 -46 -2
408 -26 37
409 -26 37
410 -26 37
411 -26 37
412 -26 37
413 -26 37
414 -26 37
415 -50 -48
416 -50 -48
417 12 44
418 12 44
419 12 44
420 12 44
421 50 -41
422 50 -41
423 50 -41
424 50 -41
425 50 -41
426 31 -10
427 31 -10
428 9 0
429 9 0
430 -45 -41
431 -45 -41
432 -45 -41
433 -45 -41
434 -45 -41
435 -45 -41
436 -28 44
437 -28 44
438 -28 44
439 -28 44
440 -38 20
441 -38 20
442 -23 23
443 -23 23
444 -23 23
445 18 17
446 18 17
447 18 17
448 18 17
449 18 17
450 18 17
451 -13 -43
452 -13 -43
453 -13 -43
454 -13 -43
455 -13 -43
456 -2 40
457 -2 40
458 -2 40
459 -2 40
460 -2 40
461 39 -18
462 39 -18
463 39 -18
464 39 -18
465 2 -23
466 2 -23
467 2 -23
468 2 -23
469 2 -23
470 47 10
471 47 10
472 47 10
473 -37 -18
474 -37 -18
475 -37 -18
476 -37 -18
477 -37 -18
478 16 -26
479 16 -26
480 -38 27
481 -38 27
482 23 49
483 23 49
484 23 49
485 35 -30
486 35 -30
487 35 -30
488 35 -30
489 35 -30
490 -31 -24
491 -31 -24
492 -31 -24
493 -31 -24
494 37 21
495 37 21
496 -11 -49
497 -11 -49
498 -11 -49
499 -11 -49
500 7 19
501 7 19
502 7 19
503 7 19
504 -43 -49
505 -43 -49
506 -43 -49
507 -43 -49
508 -43 -49
509 -43 -49
510 -43 -49
511 -31 40
512 -31 40
513 -31 40
514 -31 40
515 -31 40
516 -48 -4
517 -48 -4
518 -48 -4
519 -48 -4
520 42 18
521 42 18
522 42 18
523 42 18
524 42 18
525 42 18
526 42 18
527 -27 -2
528 -27 -2
529 -27 -2
530 -27 -2
531 -27 -2
532 -27 -2
533 -42 1
534 -42 1
535 -42 1
536 -50 21
537 -50 21
538 -50 21
539 -50 21
540 -50 21
541 -42 20
542 -42 20
543 -42 20
544 -42 20
545 -42 20
546 28 24
547 28 24
548 28 24
549 28 24
550 28 24
551 28 24
552 -12 -43
553 -12 -43
554 -24 28
555 -24 28
556 35 26
557 35 26
558 35 26
559 35 26
560 -21 13
561 -21 13
562 -21 13
563 -21 13
564 -21 13
565 -20 -40
566 -20 -40
567 -20 -40
568 -20 -40
569 -20 -40
570 46 22
571 46 22
572 46 22
573 46 22
574 46 22
575 -42 32
576 -42 32
577 -46 16
578 -46 16
579 -46 16
580 -46 16
581 -46 16
582 29 -18
583 29 -18
584 -2 49
585 -2 49
586 40 11
587 40 11
588 40 11
589 40 11
590 2 21
591 2 21
592 2 21
593 2 21
594 2 21
595 15 24
596 15 24
597 15 24
598 15 24
599 15 24
600 15 24
601 50 -6
602 50 -6
603 50 -6
604 -29 -11
605 12 -11
606 12 -11
607 12 -11
608 12 -11
609 12 -11
610 12 -11
DEMAND_SECTION
1 0
2 20
3 5
4 1
5 20
6 5
7 20
8 20
9 1
10 1
11 1
12 1
13 20
14 20
15 5
16 20
17 20
18 1
19 1
20 20
21 20
22 5
23 20
24 5
25 1
26 1
27 1
28 1
29 20
30 10
31 1
32 1
33 20
34 20
35 5
36 1
37 20
38 1
39 10
40 5
41 1
42 1
43 1
44 1
45 20
46 10
47 1
48 1
49 20
50 20
51 5
52 1
53 1
54 1
55 1
56 20
57 20
58 5
59 1
60 1
61 20
62 10
63 1
64 20
65 20
66 5
67 1
68 1
69 1
70 1
71 20
72 20
73 5
74 1
75 1
76 10
77 5
78 1
79 20
80 20
81 5
82 20
83 1
84 1
85 1
86 1
87 20
88 10
89 1
90 1
91 1
92 20
93 10
94 5
95 1
96 20
97 10
98 5
99 1
100 1
101 1
102 1
103 20
104 10
105 20
106 20
107 1
108 1
109 20
110 1
111 1
112 10
113 5
114 1
115 1
116 20
117 20
118 5
119 1
120 20
121 5
122 20
123 10
124 5
125 1
126 1
127 10
128 1
129 1
130 20
131 10
132 5
133 1
134 1
135 1
136 20
137 20
138 1
139 20
140 10
141 1
142 1
143 1
144 20
145 10
146 10
147 5
148 1
149 1
150 20
151 20
152 5
153 1
154 1
155 1
156 10
157 5
158 1
159 1
160 1
161 1
162 20
163 20
164 5
165 1
166 1
167 20
168 10
169 5
170 1
171 20
172 10
173 5
174 1
175 1
176 20
177 5
178 10
179 5
180 1
181 1
182 1
183 1
184 20
185 1
186 1
187 10
188 1
189 1
190 1
191 10
192 5
193 1
194 1
195 1
196 1
197 20
198 20
199 1
200 20
201 1
202 1
203 1
204 1
205 10
206 5
207 1
208 20
209 1
210 1
211 1
212 1
213 20
214 20
215 5
216 1
217 1
218 1
219 20
220 5
221 1
222 1
223 1
224 20
225 5
226 1
227 20
228 5
229 1
230 20
231 10
232 10
233 5
234 20
235 10
236 20
237 10
238 5
239 1
240 10
241 1
242 1
243 1
244 1
245 20
246 5
247 20
248 20
249 20
250 5
251 1
252 1
253 1
254 10
255 1
256 1
257 1
258 20
259 10
260 1
261 20
262 20
263 10
264 10
265 5
266 1
267 20
268 20
269 1
270 1
271 20
272 10
273 5
274 1
275 10
276 5
277 1
278 1
279 1
280 1
281 20
282 10
283 1
284 20
285 20
286 5
287 20
288 1
289 1
290 1
291 1
292 20
293 10
294 5
295 1
296 1
297 20
298 20
299 20
300 5
301 1
302 20
303 1
304 20
305 5
306 20
307 10
308 5
309 1
310 1
311 1
312 1
313 20
314 20
315 1
316 1
317 1
318 1
319 20
320 10
321 1
322 1
323 1
324 1
325 20
326 10
327 1
328 1
329 1
330 10
331 5
332 1
333 1
334 1
335 1
336 20
337 20
338 1
339 1
340 1
341 1
342 20
343 20
344 1
345 1
346 1
347 20
348 10
349 5
350 20
351 10
352 1
353 1
354 1
355 1
356 10
357 5
358 1
359 1
360 1
361 20
362 20
363 1
364 1
365 20
366 5
367 20
368 10
369 1
370 1
371 1
372 1
373 20
374 20
375 5
376 10
377 1
378 1
379 1
380 1
381 10
382 1
383 1
384 1
385 1
386 20
387 1
388 1
389 1
390 1
391 20
392 10
393 20
394 20
395 5
396 1
397 1
398 20
399 20
400 10
401 20
402 20
403 1
404 20
405 5
406 20
407 10
408 20
409 10
410 5
411 1
412 1
413 1
414 1
415 20
416 20
417 20
418 1
419 1
420 1
421 20
422 5
423 1
424 1
425 1
426 20
427 5
428 20
429 20
430 20
431 5
432 1
433 1
434 1
435 1
436 20
437 10
438 1
439 1
440 20
441 10
442 10
443 5
444 1
445 20
446 10
447 1
448 1
449 1
450 1
451 10
452 1
453 1
454 1
455 1
456 20
457 20
458 5
459 1
460 1
461 20
462 10
463 5
464 1
465 10
466 5
467 1
468 1
469 1
470 20
471 20
472 5
473 10
474 5
475 1
476 1
477 1
478 20
479 1
480 10
481 5
482 20
483 10
484 1
485 20
486 20
487 1
488 1
489 1
490 10
491 1
492 1
493 1
494 20
495 1
496 20
497 10
498 5
499 1
500 10
501 5
502 1
503 1
504 20
505 20
506 5
507 1
508 1
509 1
510 1
511 20
512 20
513 5
514 1
515 1
516 20
517 10
518 5
519 1
520 20
521 10
522 5
523 1
524 1
525 1
526 1
527 20
528 10
529 5
530 1
531 1
532 1
533 20
534 10
535 1
536 20
537 20
538 1
539 1
540 1
541 20
542 1
543 1
544 1
545 1
546 20
547 20
548 1
549 1
550 1
551 1
552 10
553 5
554 20
555 1
556 20
557 20
558 1
559 1
560 20
561 10
562 1
563 1
564 1
565 20
566 1
567 1
568 1
569 1
570 20
571 10
572 5
573 1
574 1
575 20
576 20
577 20
578 10
579 5
580 1
581 1
582 20
583 5
584 20
585 20
586 10
587 5
588 1
589 1
590 10
591 5
592 1
593 1
594 1
595 20
596 20
597 1
598 1
599 1
600 1
601 20
602 10
603 1
604 20
605 20
606 20
607 1
608 1
609 1
610 1
DEPOT_SECTION
1
-1
EOF