Normalized Data/p04_16_normalized_split0.sol
609 -2 3 1 33 34 32 35 -8 10 6 9 7 12 13 14 464 467 466 -11 478 477 229 230 154 150 149 152 151 153 -17 18 15 16 428 427 -19 21 4 5 487 486 488 484 485 275 276 279 -20 581 582 203 199 278 277 274 110 109 108 -24 25 27 26 475 476 223 225 224 228 227 226 137 136 135 -43 40 42 38 41 39 383 381 382 380 384 28 29 31 30 249 248 251 250 252 -51 48 49 54 50 102 52 103 53 -57 58 55 59 56 407 408 409 413 411 412 410 141 142 139 140 -61 62 60 126 127 128 552 551 568 567 565 566 564 148 145 146 147 -66 63 65 313 312 315 317 314 316 424 421 422 423 420 189 187 -68 69 67 64 217 215 213 212 216 214 244 245 125 124 -74 72 339 337 336 338 340 335 364 365 85 83 84 82 81 -78 73 71 70 307 305 310 308 306 311 309 -79 80 246 247 448 449 444 447 446 445 -88 86 90 87 89 362 361 363 360 282 280 -94 93 196 197 198 266 269 268 267 465 468 -107 104 106 105 455 458 456 459 457 281 -138 397 399 398 560 559 -144 143 36 37 162 164 161 165 163 -170 510 514 511 512 513 435 436 437 438 -180 178 179 177 182 181 508 509 503 506 504 505 507 358 359 430 434 431 429 433 432 -183 185 184 239 242 243 241 240 533 534 532 76 77 75 530 528 527 -188 186 298 299 300 297 175 176 379 378 377 376 375 -193 195 194 192 190 191 115 118 116 117 366 367 369 371 370 368 -202 201 200 123 121 122 460 462 463 461 208 207 209 210 211 -205 388 389 386 387 385 536 537 535 538 539 218 222 220 219 221 -237 235 600 602 601 232 231 426 425 -255 254 256 253 236 238 259 257 258 471 469 470 -260 262 261 283 285 284 -265 264 263 120 119 341 343 342 344 345 472 474 473 -273 270 272 271 596 598 597 599 595 594 -289 290 287 288 286 92 91 604 605 606 609 608 607 -295 291 292 294 293 540 544 543 541 542 577 576 578 579 580 -302 301 497 495 498 496 330 334 329 333 331 332 454 451 450 452 453 -346 348 347 23 22 603 526 -351 354 349 353 350 352 372 373 374 550 545 -355 357 356 415 414 233 234 492 490 489 491 -402 400 401 132 134 131 130 133 129 499 501 502 500 -404 403 405 406 518 517 516 515 531 529 -419 416 418 417 167 166 169 168 483 481 482 -441 442 553 554 204 206 440 439 296 563 561 562 -443 173 171 172 174 574 575 303 304 480 479 -493 494 157 158 155 160 156 159 318 322 320 319 323 321 44 524 521 -525 523 519 522 520 46 47 45 571 569 570 572 573 587 585 586 588 -548 394 396 393 395 390 391 327 326 325 324 328 557 -549 547 546 111 113 112 114 392 556 555 558 -584 583 101 98 95 96 97 100 99 593 591 590 589 592 0 





OBJ=
4391.821
BEST_KNOWN=
0.000